/* Objective function */
max: +t;

/* Constraints */
+0.51409393549 pi1 +0.562235832214 pi2 +0.551270186901 pi3 +0.660436332226 pi4 +0.540696382523 pi5 -t >= 0;
+0.523895084858 pi1 +0.513018965721 pi2 +0.634985923767 pi3 +0.596289038658 pi4 +0.557119131088 pi5 -t >= 0;
+0.551140666008 pi1 +0.809889435768 pi2 +0.512868463993 pi3 +0.717055439949 pi4 +0.574969768524 pi5 -t >= 0;
+0.540830373764 pi1 +0.59042185545 pi2 +0.556124508381 pi3 +0.514350652695 pi4 +0.593339264393 pi5 -t >= 0;
+0.660396337509 pi1 +0.716287851334 pi2 +0.591871976852 pi3 +0.789816081524 pi4 +0.538664758205 pi5 -t >= 0;
+pi1 +pi2 +pi3 +pi4 +pi5 = 1;
